; faust :: corpus-study/repo_src/faust/faust/streams.py :: EVENT 'Stream._passive_started' :: structured encoding (verdict: unsat)
; Generated by snf-pipeline (encoder.py) -- run with any
; SMT-LIB2-compliant solver, e.g. `z3 faust__corpus-study_repo_src_faust_faust_streams.py__Stream._passive_started__structured.smt2`
; benchmark generated from python API
(set-info :status unknown)
(declare-fun ewake_0 () Bool)
(assert
 (= ewake_0 true))
(assert
 (let (($x24 (not ewake_0)))
(or $x24)))
(check-sat)
